(set-logic QF_UF)
(declare-fun A2 () Bool)
(declare-fun A3 () Bool)
(declare-fun A5 () Bool)
(declare-fun A6 () Bool)
(declare-fun A8 () Bool)
(declare-fun A9 () Bool)
(declare-fun A10 () Bool)
(declare-fun A11 () Bool)
(declare-fun A12 () Bool)
(declare-fun A13 () Bool)
(declare-fun A14 () Bool)
(declare-fun A15 () Bool)
(declare-fun A16 () Bool)
(declare-fun A17 () Bool)
(declare-fun A18 () Bool)
(declare-fun A19 () Bool)
(declare-fun A20 () Bool)
(declare-fun A21 () Bool)
(declare-fun A22 () Bool)
(declare-fun A23 () Bool)
(declare-fun A24 () Bool)
(declare-fun A25 () Bool)
(declare-fun A26 () Bool)
(declare-fun A27 () Bool)
(declare-fun A29 () Bool)
(assert (let ((.def_0 (not A19))) (let ((.def_1 (or A13 .def_0))) (let ((.def_2 (and A9 A13))) (let ((.def_3 (not .def_2))) (let ((.def_4 (or .def_3 .def_1))) (let ((.def_5 (not .def_4))) (let ((.def_6 (not A27))) (let ((.def_7 (or A18 .def_6))) (let ((.def_8 (not A18))) (let ((.def_9 (and A9 .def_8))) (let ((.def_10 (and .def_9 .def_7))) (let ((.def_11 (not .def_10))) (let ((.def_12 (or .def_11 .def_5))) (let ((.def_13 (not A21))) (let ((.def_14 (not A2))) (let ((.def_15 (or .def_14 .def_13))) (let ((.def_16 (not .def_15))) (let ((.def_17 (not A20))) (let ((.def_18 (or A14 .def_17))) (let ((.def_19 (or .def_18 .def_16))) (let ((.def_20 (not .def_19))) (let ((.def_21 (not A3))) (let ((.def_22 (and A2 .def_21))) (let ((.def_23 (not A5))) (let ((.def_24 (= .def_23 A22))) (let ((.def_25 (and .def_24 .def_22))) (let ((.def_26 (or .def_25 .def_20))) (let ((.def_27 (or .def_26 .def_12))) (let ((.def_28 (and A11 .def_23))) (let ((.def_29 (not .def_28))) (let ((.def_30 (not A26))) (let ((.def_31 (and .def_30 A17))) (let ((.def_32 (or .def_31 .def_29))) (let ((.def_33 (not .def_32))) (let ((.def_34 (and A16 A17))) (let ((.def_35 (not A23))) (let ((.def_36 (and .def_35 .def_0))) (let ((.def_37 (not .def_36))) (let ((.def_38 (and .def_37 .def_34))) (let ((.def_39 (or .def_38 .def_33))) (let ((.def_40 (not .def_39))) (let ((.def_41 (or A13 A9))) (let ((.def_42 (not .def_41))) (let ((.def_43 (and A24 A15))) (let ((.def_44 (or .def_43 .def_42))) (let ((.def_45 (not A29))) (let ((.def_46 (or .def_45 A23))) (let ((.def_47 (not A17))) (let ((.def_48 (and A24 .def_47))) (let ((.def_49 (or .def_48 .def_46))) (let ((.def_50 (or .def_49 .def_44))) (let ((.def_51 (or .def_50 .def_40))) (let ((.def_52 (and .def_51 .def_27))) (let ((.def_53 (not A11))) (let ((.def_54 (not A13))) (let ((.def_55 (= .def_54 .def_53))) (let ((.def_56 (not A10))) (let ((.def_57 (and .def_56 A17))) (let ((.def_58 (= .def_57 .def_55))) (let ((.def_59 (not .def_58))) (let ((.def_60 (not A8))) (let ((.def_61 (or A25 .def_60))) (let ((.def_62 (not .def_61))) (let ((.def_63 (and A5 A20))) (let ((.def_64 (and .def_63 .def_62))) (let ((.def_65 (not .def_64))) (let ((.def_66 (or .def_65 .def_59))) (let ((.def_67 (not .def_66))) (let ((.def_68 (and .def_23 A12))) (let ((.def_69 (and A9 .def_17))) (let ((.def_70 (or .def_69 .def_68))) (let ((.def_71 (not .def_70))) (let ((.def_72 (not A14))) (let ((.def_73 (= A24 .def_72))) (let ((.def_74 (not .def_73))) (let ((.def_75 (and .def_60 A12))) (let ((.def_76 (not .def_75))) (let ((.def_77 (or .def_76 .def_74))) (let ((.def_78 (not .def_77))) (let ((.def_79 (and .def_78 .def_71))) (let ((.def_80 (and .def_79 .def_67))) (let ((.def_81 (or .def_8 A8))) (let ((.def_82 (or A29 .def_45))) (let ((.def_83 (and .def_82 .def_81))) (let ((.def_84 (and A12 .def_23))) (let ((.def_85 (not .def_84))) (let ((.def_86 (= A12 A27))) (let ((.def_87 (and .def_86 .def_85))) (let ((.def_88 (not .def_87))) (let ((.def_89 (or .def_88 .def_83))) (let ((.def_90 (not A16))) (let ((.def_91 (not A12))) (let ((.def_92 (or .def_91 .def_90))) (let ((.def_93 (not .def_92))) (let ((.def_94 (and .def_23 .def_17))) (let ((.def_95 (not .def_94))) (let ((.def_96 (or .def_95 .def_93))) (let ((.def_97 (and .def_0 .def_72))) (let ((.def_98 (not .def_97))) (let ((.def_99 (and A10 A6))) (let ((.def_100 (and .def_99 .def_98))) (let ((.def_101 (and .def_100 .def_96))) (let ((.def_102 (= .def_101 .def_89))) (let ((.def_103 (or .def_102 .def_80))) (let ((.def_104 (and .def_103 .def_52))) .def_104))))))))))))))))))))))))))))))))))))))))))))))))))))))))))))))))))))))))))))))))))))))))))))))))))))))))))
(check-sat)
